c Generated map
c Size: 8 * 8, weights in range: 1 to 10, walls: True, with ratio 0.1
c dim 5 of 9
c
p sp 64 92
c graph contains 64 nodes and 92 arcs
c
a 1 9 8
a 9 1 8
a 1 2 6
a 2 1 6
a 2 10 3
a 10 2 3
a 2 3 5
a 3 2 5
a 3 11 3
a 11 3 3
a 3 4 2
a 4 3 2
a 4 5 8
a 5 4 8
a 5 13 6
a 13 5 6
a 5 6 1
a 6 5 1
a 6 14 9
a 14 6 9
a 6 7 7
a 7 6 7
a 7 15 1
a 15 7 1
a 7 8 2
a 8 7 2
a 8 16 3
a 16 8 3
a 9 17 9
a 17 9 9
a 9 10 1
a 10 9 1
a 10 18 3
a 18 10 3
a 10 11 4
a 11 10 4
a 11 19 10
a 19 11 10
a 13 21 7
a 21 13 7
a 13 14 10
a 14 13 10
a 14 22 8
a 22 14 8
a 14 15 2
a 15 14 2
a 15 23 5
a 23 15 5
a 15 16 9
a 16 15 9
a 16 24 3
a 24 16 3
a 17 25 7
a 25 17 7
a 17 18 6
a 18 17 6
a 18 26 4
a 26 18 4
a 18 19 7
a 19 18 7
a 19 20 10
a 20 19 10
a 20 21 3
a 21 20 3
a 21 29 3
a 29 21 3
a 21 22 5
a 22 21 5
a 22 30 9
a 30 22 9
a 22 23 4
a 23 22 4
a 23 31 4
a 31 23 4
a 23 24 5
a 24 23 5
a 25 33 3
a 33 25 3
a 25 26 10
a 26 25 10
a 26 34 4
a 34 26 4
a 29 30 8
a 30 29 8
a 30 38 4
a 38 30 4
a 30 31 3
a 31 30 3
a 31 39 4
a 39 31 4
a 33 41 5
a 41 33 5
a 33 34 8
a 34 33 8
a 34 42 6
a 42 34 6
a 34 35 1
a 35 34 1
a 35 43 4
a 43 35 4
a 35 36 9
a 36 35 9
a 36 44 9
a 44 36 9
a 38 46 8
a 46 38 8
a 38 39 2
a 39 38 2
a 39 47 5
a 47 39 5
a 41 49 9
a 49 41 9
a 41 42 2
a 42 41 2
a 42 50 5
a 50 42 5
a 42 43 1
a 43 42 1
a 43 51 7
a 51 43 7
a 43 44 2
a 44 43 2
a 44 52 6
a 52 44 6
a 44 45 2
a 45 44 2
a 45 53 10
a 53 45 10
a 45 46 9
a 46 45 9
a 46 54 6
a 54 46 6
a 46 47 5
a 47 46 5
a 47 55 6
a 55 47 6
a 47 48 2
a 48 47 2
a 48 56 2
a 56 48 2
a 49 57 3
a 57 49 3
a 49 50 8
a 50 49 8
a 50 58 5
a 58 50 5
a 50 51 7
a 51 50 7
a 51 59 5
a 59 51 5
a 51 52 6
a 52 51 6
a 52 60 3
a 60 52 3
a 52 53 8
a 53 52 8
a 53 61 5
a 61 53 5
a 53 54 6
a 54 53 6
a 54 62 8
a 62 54 8
a 54 55 1
a 55 54 1
a 55 63 1
a 63 55 1
a 55 56 9
a 56 55 9
a 56 64 5
a 64 56 5
a 57 58 4
a 58 57 4
a 58 59 5
a 59 58 5
a 59 60 9
a 60 59 9
a 60 61 6
a 61 60 6
a 61 62 1
a 62 61 1
a 62 63 5
a 63 62 5
a 63 64 2
a 64 63 2
